p cnf 19 8
a 1 0
e 2 3 0
a 4 0
e 5 6 7 0
a 8 9 10 0
e 11 12 0
a 13 0
e 14 15 16 0
a 17 18 19 0
8 -7 16 14 -17 0
-10 -18 9 4 -16 0
3 2 -11 5 -10 0
-1 7 -6 -3 0
-6 -18 -14 0
9 18 8 1 -3 0
-14 19 12 0
3 1 9 14 -10 0
